c Random generated cnf formula, satisfiable: true
p cnf 10 50
-10 9 3 0
-2 8 5 0
-6 -9 -7 0
-2 7 8 0
7 -3 -8 0
-7 -9 2 0
4 -5 8 0
8 7 2 0
8 4 -7 0
2 7 1 0
-3 -8 6 0
-10 -9 2 0
7 -8 9 0
4 8 5 0
-6 9 -7 0
-8 2 -3 0
2 -7 3 0
-2 4 -3 0
-3 -5 2 0
6 2 4 0
-6 7 -3 0
-1 -2 5 0
10 -2 -7 0
3 2 -10 0
-2 -10 -7 0
-5 6 3 0
-3 -5 -9 0
10 -1 -8 0
-5 7 -9 0
-5 4 1 0
2 9 4 0
-4 -6 -9 0
-8 10 7 0
-6 -10 5 0
1 4 -2 0
7 3 2 0
2 -7 4 0
-6 1 9 0
-3 10 6 0
-7 -3 -6 0
-6 -5 -8 0
4 -3 1 0
-7 -6 -4 0
7 8 -5 0
-10 -3 -1 0
-1 -10 -7 0
5 10 -9 0
-7 3 -6 0
6 -3 1 0
1 7 4 0
